1691
1   1   0    51   0 2 1 9 17 25 33 20 12 0
1   2   0    49   0 3 11 19 21 29 37 27 35 34 26 18 10 0
1   3   0    60   0 5 8 7 6 4 0
1   4   0    0    0 0
1   5   0    0    0 0
2   1   0    42   0 56 64 72 80 79 71 63 54 46 0
2   2   0    55   0 52 60 68 62 70 78 76 73 38 30 22 39 59 51 43 0
2   3   0    59   0 58 66 15 14 28 36 65 57 49 50 42 0
2   4   0    56   0 41 44 47 55 48 0
2   5   0    60   0 61 69 77 67 75 40 32 24 16 13 23 31 74 53 45 0